(set-info :source |printed by MathSAT|)
(declare-fun |!{N}| () Int)
(declare-fun |!{N}.next| () Int)
(declare-fun |!{i}| () Int)
(declare-fun |!{i}.next| () Int)
(declare-fun |!{x}| () Int)
(declare-fun |!{x}.next| () Int)
(declare-fun |!{a.1}| () (Array Int Int))
(declare-fun |!{a.1}.next| () (Array Int Int))
(declare-fun |!pc[0]| () Bool)
(declare-fun |!pc[0].next| () Bool)
(declare-fun |!pc[1]| () Bool)
(declare-fun |!pc[1].next| () Bool)
(declare-fun |!pc[2]| () Bool)
(declare-fun |!pc[2].next| () Bool)
(declare-fun |!pc[3]| () Bool)
(declare-fun |!pc[3].next| () Bool)
(declare-fun |%{x}#1| () Int)
(declare-fun |%{a.1}#1| () (Array Int Int))
(declare-fun nd<0> () Int)
(declare-fun arrlambda_0 () Int)
(declare-fun arrlambda_0.next () Int)
(declare-fun proph0 () Int)
(declare-fun proph0.next () Int)
(define-fun .def_10 () Bool (! |!pc[3]| :next |!pc[3].next|))
(define-fun .def_12 () Bool (! |!pc[2]| :next |!pc[2].next|))
(define-fun .def_14 () Bool (! |!pc[1]| :next |!pc[1].next|))
(define-fun .def_16 () Bool (! |!pc[0]| :next |!pc[0].next|))
(define-fun .def_34 () Int (! |!{N}| :next |!{N}.next|))
(define-fun .def_41 () Int (! |!{x}| :next |!{x}.next|))
(define-fun .def_45 () (Array Int Int) (! |!{a.1}| :next |!{a.1}.next|))
(define-fun .def_49 () Int (! |!{i}| :next |!{i}.next|))
(define-fun .def_368 () Int (! arrlambda_0 :next |arrlambda_0.next|))
(define-fun .def_64746 () Int (! proph0 :next |proph0.next|))
(define-fun .def_17 () Bool (not .def_16))
(define-fun .def_15 () Bool (not .def_14))
(define-fun .def_18 () Bool (and .def_15 .def_17))
(define-fun .def_13 () Bool (not .def_12))
(define-fun .def_19 () Bool (and .def_13 .def_18))
(define-fun .def_11 () Bool (not .def_10))
(define-fun .def_20 () Bool (! (and .def_11 .def_19) :init true))
(define-fun .def_147 () (Array Int Int) (store .def_45 .def_49 47))
(define-fun .def_108540 () Int (select .def_147 .def_64746))
(define-fun .def_87324 () Int (select .def_45 .def_64746))
(define-fun .def_108544 () Bool (= .def_87324 .def_108540))
(define-fun .def_65302 () Bool (= .def_49 .def_64746))
(define-fun .def_108545 () Bool (or .def_65302 .def_108544))
(define-fun .def_87325 () Int (select |!{a.1}.next| .def_64746))
(define-fun .def_108541 () Bool (= .def_87325 .def_108540))
(define-fun .def_148 () Bool (= |!{a.1}.next| .def_147))
(define-fun .def_23833 () Bool (not .def_148))
(define-fun .def_108542 () Bool (or .def_23833 .def_108541))
(define-fun .def_87326 () Bool (= .def_87324 .def_87325))
(define-fun .def_47 () Bool (= .def_45 |!{a.1}.next|))
(define-fun .def_23828 () Bool (not .def_47))
(define-fun .def_87327 () Bool (or .def_23828 .def_87326))
(define-fun .def_82 () (Array Int Int) (store .def_45 .def_49 43))
(define-fun .def_83 () Bool (= |!{a.1}.next| .def_82))
(define-fun .def_87321 () Bool (not .def_83))
(define-fun .def_87312 () Int (select .def_82 .def_49))
(define-fun .def_23831 () Int (select |!{a.1}.next| .def_49))
(define-fun .def_87320 () Bool (= .def_23831 .def_87312))
(define-fun .def_87322 () Bool (or .def_87320 .def_87321))
(define-fun .def_96 () (Array Int Int) (store .def_45 .def_49 44))
(define-fun .def_97 () Bool (= |!{a.1}.next| .def_96))
(define-fun .def_87317 () Bool (not .def_97))
(define-fun .def_87308 () Int (select .def_96 .def_49))
(define-fun .def_87316 () Bool (= .def_23831 .def_87308))
(define-fun .def_87318 () Bool (or .def_87316 .def_87317))
(define-fun .def_87313 () Bool (= .def_87312 43))
(define-fun .def_87309 () Bool (= .def_87308 44))
(define-fun .def_64749 () Bool (= .def_64746 proph0.next))
(define-fun .def_23821 () Int (select .def_147 .def_49))
(define-fun .def_23832 () Bool (= .def_23821 .def_23831))
(define-fun .def_23834 () Bool (or .def_23832 .def_23833))
(define-fun .def_23826 () Int (select .def_45 |!{x}.next|))
(define-fun .def_23825 () Int (select |!{a.1}.next| |!{x}.next|))
(define-fun .def_23827 () Bool (= .def_23825 .def_23826))
(define-fun .def_23829 () Bool (or .def_23827 .def_23828))
(define-fun .def_23822 () Bool (= .def_23821 47))
(define-fun .def_370 () Bool (= .def_368 arrlambda_0.next))
(define-fun .def_202 () Bool (<= nd<0> 0))
(define-fun .def_203 () Bool (not .def_202))
(define-fun .def_198 () Bool (= |!{N}.next| nd<0>))
(define-fun .def_39 () Bool (= |!{i}.next| 0))
(define-fun .def_199 () Bool (and .def_39 .def_198))
(define-fun .def_196 () Bool (= |!{x}.next| |%{x}#1|))
(define-fun .def_200 () Bool (and .def_196 .def_199))
(define-fun .def_194 () Bool (= |!{a.1}.next| |%{a.1}#1|))
(define-fun .def_201 () Bool (and .def_194 .def_200))
(define-fun .def_204 () Bool (and .def_201 .def_203))
(define-fun .def_53 () Bool (not |!pc[3].next|))
(define-fun .def_27 () Bool (not |!pc[1].next|))
(define-fun .def_29 () Bool (and .def_27 |!pc[0].next|))
(define-fun .def_25 () Bool (not |!pc[2].next|))
(define-fun .def_30 () Bool (and .def_25 .def_29))
(define-fun .def_54 () Bool (and .def_30 .def_53))
(define-fun .def_192 () Bool (and .def_20 .def_54))
(define-fun .def_205 () Bool (and .def_192 .def_204))
(define-fun .def_174 () Int (select .def_45 .def_41))
(define-fun .def_175 () Bool (= .def_174 47))
(define-fun .def_183 () Bool (not .def_175))
(define-fun .def_36 () Bool (= .def_34 |!{N}.next|))
(define-fun .def_184 () Bool (and .def_36 .def_183))
(define-fun .def_139 () Bool (= |!{i}.next| .def_49))
(define-fun .def_185 () Bool (and .def_139 .def_184))
(define-fun .def_43 () Bool (= .def_41 |!{x}.next|))
(define-fun .def_186 () Bool (and .def_43 .def_185))
(define-fun .def_187 () Bool (and .def_47 .def_186))
(define-fun .def_167 () Bool (<= .def_34 .def_41))
(define-fun .def_177 () Bool (not .def_167))
(define-fun .def_188 () Bool (and .def_177 .def_187))
(define-fun .def_89 () Bool (and |!pc[1].next| |!pc[0].next|))
(define-fun .def_180 () Bool (and .def_25 .def_89))
(define-fun .def_181 () Bool (and .def_53 .def_180))
(define-fun .def_118 () Bool (and .def_14 .def_17))
(define-fun .def_164 () Bool (and .def_13 .def_118))
(define-fun .def_165 () Bool (and .def_11 .def_164))
(define-fun .def_182 () Bool (and .def_165 .def_181))
(define-fun .def_189 () Bool (and .def_182 .def_188))
(define-fun .def_156 () Int (* (- 1) |!{x}.next|))
(define-fun .def_157 () Int (+ .def_41 .def_156))
(define-fun .def_158 () Bool (= .def_157 (- 1)))
(define-fun .def_140 () Bool (and .def_36 .def_139))
(define-fun .def_159 () Bool (and .def_140 .def_158))
(define-fun .def_160 () Bool (and .def_47 .def_159))
(define-fun .def_176 () Bool (and .def_160 .def_175))
(define-fun .def_178 () Bool (and .def_176 .def_177))
(define-fun .def_74 () Bool (not |!pc[0].next|))
(define-fun .def_105 () Bool (and |!pc[1].next| .def_74))
(define-fun .def_135 () Bool (and .def_25 .def_105))
(define-fun .def_136 () Bool (and .def_53 .def_135))
(define-fun .def_173 () Bool (and .def_136 .def_165))
(define-fun .def_179 () Bool (and .def_173 .def_178))
(define-fun .def_190 () Bool (or .def_179 .def_189))
(define-fun .def_168 () Bool (and .def_36 .def_167))
(define-fun .def_169 () Bool (and .def_139 .def_168))
(define-fun .def_170 () Bool (and .def_43 .def_169))
(define-fun .def_171 () Bool (and .def_47 .def_170))
(define-fun .def_75 () Bool (and .def_27 .def_74))
(define-fun .def_162 () Bool (and |!pc[2].next| .def_75))
(define-fun .def_163 () Bool (and .def_53 .def_162))
(define-fun .def_166 () Bool (and .def_163 .def_165))
(define-fun .def_172 () Bool (and .def_166 .def_171))
(define-fun .def_191 () Bool (or .def_172 .def_190))
(define-fun .def_206 () Bool (or .def_191 .def_205))
(define-fun .def_102 () Bool (and .def_14 .def_16))
(define-fun .def_153 () Bool (and .def_13 .def_102))
(define-fun .def_154 () Bool (and .def_11 .def_153))
(define-fun .def_155 () Bool (and .def_136 .def_154))
(define-fun .def_161 () Bool (and .def_155 .def_160))
(define-fun .def_207 () Bool (or .def_161 .def_206))
(define-fun .def_63 () Int (* (- 1) .def_49))
(define-fun .def_64 () Int (+ |!{i}.next| .def_63))
(define-fun .def_65 () Bool (= .def_64 1))
(define-fun .def_66 () Bool (and .def_36 .def_65))
(define-fun .def_67 () Bool (and .def_43 .def_66))
(define-fun .def_149 () Bool (and .def_67 .def_148))
(define-fun .def_50 () Bool (<= .def_34 .def_49))
(define-fun .def_69 () Bool (not .def_50))
(define-fun .def_150 () Bool (and .def_69 .def_149))
(define-fun .def_21 () Bool (and .def_15 .def_16))
(define-fun .def_133 () Bool (and .def_12 .def_21))
(define-fun .def_134 () Bool (and .def_11 .def_133))
(define-fun .def_121 () Bool (and |!pc[2].next| .def_29))
(define-fun .def_122 () Bool (and .def_53 .def_121))
(define-fun .def_145 () Bool (and .def_122 .def_134))
(define-fun .def_151 () Bool (and .def_145 .def_150))
(define-fun .def_138 () Bool (= |!{x}.next| 0))
(define-fun .def_141 () Bool (and .def_138 .def_140))
(define-fun .def_142 () Bool (and .def_47 .def_141))
(define-fun .def_143 () Bool (and .def_50 .def_142))
(define-fun .def_137 () Bool (and .def_134 .def_136))
(define-fun .def_144 () Bool (and .def_137 .def_143))
(define-fun .def_152 () Bool (or .def_144 .def_151))
(define-fun .def_208 () Bool (or .def_152 .def_207))
(define-fun .def_127 () (Array Int Int) (store .def_45 .def_49 46))
(define-fun .def_128 () Bool (= |!{a.1}.next| .def_127))
(define-fun .def_129 () Bool (and .def_67 .def_128))
(define-fun .def_130 () Bool (and .def_69 .def_129))
(define-fun .def_119 () Bool (and .def_12 .def_118))
(define-fun .def_120 () Bool (and .def_11 .def_119))
(define-fun .def_106 () Bool (and |!pc[2].next| .def_105))
(define-fun .def_107 () Bool (and .def_53 .def_106))
(define-fun .def_125 () Bool (and .def_107 .def_120))
(define-fun .def_131 () Bool (and .def_125 .def_130))
(define-fun .def_123 () Bool (and .def_120 .def_122))
(define-fun .def_40 () Bool (and .def_36 .def_39))
(define-fun .def_44 () Bool (and .def_40 .def_43))
(define-fun .def_48 () Bool (and .def_44 .def_47))
(define-fun .def_51 () Bool (and .def_48 .def_50))
(define-fun .def_124 () Bool (and .def_51 .def_123))
(define-fun .def_132 () Bool (or .def_124 .def_131))
(define-fun .def_209 () Bool (or .def_132 .def_208))
(define-fun .def_112 () (Array Int Int) (store .def_45 .def_49 45))
(define-fun .def_113 () Bool (= |!{a.1}.next| .def_112))
(define-fun .def_114 () Bool (and .def_67 .def_113))
(define-fun .def_115 () Bool (and .def_69 .def_114))
(define-fun .def_103 () Bool (and .def_12 .def_102))
(define-fun .def_104 () Bool (and .def_11 .def_103))
(define-fun .def_90 () Bool (and |!pc[2].next| .def_89))
(define-fun .def_91 () Bool (and .def_53 .def_90))
(define-fun .def_110 () Bool (and .def_91 .def_104))
(define-fun .def_116 () Bool (and .def_110 .def_115))
(define-fun .def_108 () Bool (and .def_104 .def_107))
(define-fun .def_109 () Bool (and .def_51 .def_108))
(define-fun .def_117 () Bool (or .def_109 .def_116))
(define-fun .def_210 () Bool (or .def_117 .def_209))
(define-fun .def_98 () Bool (and .def_67 .def_97))
(define-fun .def_99 () Bool (and .def_69 .def_98))
(define-fun .def_88 () Bool (and .def_10 .def_19))
(define-fun .def_76 () Bool (and .def_25 .def_75))
(define-fun .def_77 () Bool (and |!pc[3].next| .def_76))
(define-fun .def_94 () Bool (and .def_77 .def_88))
(define-fun .def_100 () Bool (and .def_94 .def_99))
(define-fun .def_92 () Bool (and .def_88 .def_91))
(define-fun .def_93 () Bool (and .def_51 .def_92))
(define-fun .def_101 () Bool (or .def_93 .def_100))
(define-fun .def_211 () Bool (or .def_101 .def_210))
(define-fun .def_84 () Bool (and .def_67 .def_83))
(define-fun .def_85 () Bool (and .def_69 .def_84))
(define-fun .def_22 () Bool (and .def_13 .def_21))
(define-fun .def_73 () Bool (and .def_10 .def_22))
(define-fun .def_32 () Bool (and .def_30 |!pc[3].next|))
(define-fun .def_80 () Bool (and .def_32 .def_73))
(define-fun .def_86 () Bool (and .def_80 .def_85))
(define-fun .def_78 () Bool (and .def_73 .def_77))
(define-fun .def_79 () Bool (and .def_51 .def_78))
(define-fun .def_87 () Bool (or .def_79 .def_86))
(define-fun .def_212 () Bool (or .def_87 .def_211))
(define-fun .def_57 () (Array Int Int) (store .def_45 .def_49 42))
(define-fun .def_58 () Bool (= |!{a.1}.next| .def_57))
(define-fun .def_68 () Bool (and .def_58 .def_67))
(define-fun .def_70 () Bool (and .def_68 .def_69))
(define-fun .def_23 () Bool (and .def_11 .def_22))
(define-fun .def_55 () Bool (and .def_23 .def_54))
(define-fun .def_71 () Bool (and .def_55 .def_70))
(define-fun .def_33 () Bool (and .def_23 .def_32))
(define-fun .def_52 () Bool (and .def_33 .def_51))
(define-fun .def_72 () Bool (or .def_52 .def_71))
(define-fun .def_213 () Bool (or .def_72 .def_212))
(define-fun .def_1257 () Bool (and .def_213 .def_370))
(define-fun .def_214 () Bool (not .def_154))
(define-fun .def_1258 () Bool (and .def_214 .def_1257))
(define-fun .def_23823 () Bool (and .def_1258 .def_23822))
(define-fun .def_23818 () (Array Int Int) (store |!{a.1}.next| |!{i}.next| 47))
(define-fun .def_23819 () Int (select .def_23818 |!{i}.next|))
(define-fun .def_23820 () Bool (= .def_23819 47))
(define-fun .def_23824 () Bool (and .def_23820 .def_23823))
(define-fun .def_23830 () Bool (and .def_23824 .def_23829))
(define-fun .def_23835 () Bool (and .def_23830 .def_23834))
(define-fun .def_87307 () Bool (and .def_23835 .def_64749))
(define-fun .def_87310 () Bool (and .def_87307 .def_87309))
(define-fun .def_87304 () (Array Int Int) (store |!{a.1}.next| |!{i}.next| 44))
(define-fun .def_87305 () Int (select .def_87304 |!{i}.next|))
(define-fun .def_87306 () Bool (= .def_87305 44))
(define-fun .def_87311 () Bool (and .def_87306 .def_87310))
(define-fun .def_87314 () Bool (and .def_87311 .def_87313))
(define-fun .def_87301 () (Array Int Int) (store |!{a.1}.next| |!{i}.next| 43))
(define-fun .def_87302 () Int (select .def_87301 |!{i}.next|))
(define-fun .def_87303 () Bool (= .def_87302 43))
(define-fun .def_87315 () Bool (and .def_87303 .def_87314))
(define-fun .def_87319 () Bool (and .def_87315 .def_87318))
(define-fun .def_87323 () Bool (and .def_87319 .def_87322))
(define-fun .def_87328 () Bool (and .def_87323 .def_87327))
(define-fun .def_108543 () Bool (and .def_87328 .def_108542))
(define-fun .def_108546 () Bool (and .def_108543 .def_108545))
(define-fun .def_108537 () Int (select |!{a.1}.next| proph0.next))
(define-fun .def_108536 () Int (select .def_23818 proph0.next))
(define-fun .def_108538 () Bool (= .def_108536 .def_108537))
(define-fun .def_107678 () Bool (= |!{i}.next| proph0.next))
(define-fun .def_108539 () Bool (or .def_107678 .def_108538))
(define-fun .def_108547 () Bool (! (and .def_108539 .def_108546) :trans true))
(define-fun .def_64747 () Bool (= .def_41 .def_64746))
(define-fun .def_64751 () Bool (not .def_64747))
(define-fun .def_64752 () Bool (! (or .def_214 .def_64751) :invar-property 0))
(assert true)
